33D32945 STP File, STP Format Version 1.0

SECTION Comment
Name    "i160-241"
Creator "Cees Duin"
Remark  "Incidence graph"
END

SECTION Graph
Nodes 160
Edges 2544
E 1 3 302
E 1 13 300
E 1 18 303
E 1 38 196
E 1 42 199
E 1 44 202
E 1 45 204
E 1 50 201
E 1 56 193
E 1 57 201
E 1 71 204
E 1 73 192
E 1 79 198
E 1 83 208
E 1 89 197
E 1 95 209
E 1 96 200
E 1 97 196
E 1 100 197
E 1 101 202
E 1 105 202
E 1 110 204
E 1 111 201
E 1 117 202
E 1 118 195
E 1 122 200
E 1 130 195
E 1 133 207
E 1 136 201
E 1 150 201
E 1 155 195
E 2 9 295
E 2 10 302
E 2 12 292
E 2 16 296
E 2 20 303
E 2 22 293
E 2 23 296
E 2 25 198
E 2 28 195
E 2 41 196
E 2 43 201
E 2 46 195
E 2 48 204
E 2 52 203
E 2 66 205
E 2 67 202
E 2 75 204
E 2 80 201
E 2 86 200
E 2 92 199
E 2 107 199
E 2 111 194
E 2 115 204
E 2 116 210
E 2 120 191
E 2 136 196
E 2 143 204
E 2 150 198
E 2 153 198
E 2 160 202
E 3 11 304
E 3 19 295
E 3 32 202
E 3 51 206
E 3 58 197
E 3 61 203
E 3 63 193
E 3 64 191
E 3 66 195
E 3 73 186
E 3 83 194
E 3 92 192
E 3 93 204
E 3 99 203
E 3 100 211
E 3 102 201
E 3 109 191
E 3 110 198
E 3 115 188
E 3 117 195
E 3 127 199
E 3 131 192
E 3 136 200
E 3 138 203
E 3 139 198
E 3 150 196
E 3 152 191
E 3 159 199
E 4 12 302
E 4 20 293
E 4 25 196
E 4 28 194
E 4 30 213
E 4 31 205
E 4 32 199
E 4 36 193
E 4 38 208
E 4 39 193
E 4 54 199
E 4 66 199
E 4 70 195
E 4 71 192
E 4 72 196
E 4 76 192
E 4 80 200
E 4 83 194
E 4 96 202
E 4 98 203
E 4 106 201
E 4 107 196
E 4 110 203
E 4 119 206
E 4 122 205
E 4 124 204
E 4 128 198
E 4 130 197
E 4 133 194
E 4 134 194
E 4 140 203
E 4 143 199
E 4 153 198
E 4 154 206
E 4 160 196
E 5 11 309
E 5 12 300
E 5 20 309
E 5 22 298
E 5 27 202
E 5 30 202
E 5 31 207
E 5 34 204
E 5 35 197
E 5 47 198
E 5 51 196
E 5 64 207
E 5 73 204
E 5 74 195
E 5 80 195
E 5 91 202
E 5 104 196
E 5 107 202
E 5 110 201
E 5 115 208
E 5 117 188
E 5 122 199
E 5 128 198
E 5 138 196
E 5 140 198
E 5 141 197
E 5 142 205
E 5 143 207
E 5 144 203
E 5 145 195
E 5 146 195
E 5 147 197
E 5 153 206
E 5 159 202
E 6 13 288
E 6 23 301
E 6 24 294
E 6 27 197
E 6 33 201
E 6 40 205
E 6 43 199
E 6 53 203
E 6 55 197
E 6 56 200
E 6 61 200
E 6 62 200
E 6 64 217
E 6 65 201
E 6 68 198
E 6 75 196
E 6 83 210
E 6 86 203
E 6 93 199
E 6 96 197
E 6 100 207
E 6 111 199
E 6 118 197
E 6 119 198
E 6 124 207
E 6 125 196
E 6 130 200
E 6 136 203
E 6 141 201
E 6 157 207
E 6 160 209
E 7 10 304
E 7 13 296
E 7 15 305
E 7 21 301
E 7 34 202
E 7 37 195
E 7 45 198
E 7 57 206
E 7 59 202
E 7 62 196
E 7 64 202
E 7 70 201
E 7 71 210
E 7 73 186
E 7 75 201
E 7 78 190
E 7 83 198
E 7 95 197
E 7 104 194
E 7 107 201
E 7 118 194
E 7 125 205
E 7 126 199
E 7 130 197
E 7 136 205
E 7 153 202
E 7 155 204
E 7 157 205
E 8 13 301
E 8 16 302
E 8 22 298
E 8 26 194
E 8 27 195
E 8 29 203
E 8 42 196
E 8 50 203
E 8 51 198
E 8 58 186
E 8 62 200
E 8 64 199
E 8 77 196
E 8 84 195
E 8 85 203
E 8 88 205
E 8 89 196
E 8 92 198
E 8 95 205
E 8 99 201
E 8 100 210
E 8 102 209
E 8 123 199
E 8 138 205
E 8 151 201
E 9 10 303
E 9 12 300
E 9 14 308
E 9 18 300
E 9 21 304
E 9 26 199
E 9 30 199
E 9 32 197
E 9 34 199
E 9 48 200
E 9 55 204
E 9 59 199
E 9 66 204
E 9 68 197
E 9 72 190
E 9 78 204
E 9 92 192
E 9 100 192
E 9 103 203
E 9 105 195
E 9 107 201
E 9 110 200
E 9 118 204
E 9 120 211
E 9 124 200
E 9 140 200
E 9 148 207
E 9 155 191
E 10 12 307
E 10 13 306
E 10 14 302
E 10 18 298
E 10 31 192
E 10 33 204
E 10 42 206
E 10 47 195
E 10 56 196
E 10 59 196
E 10 60 194
E 10 73 200
E 10 80 202
E 10 82 203
E 10 83 202
E 10 84 210
E 10 88 208
E 10 89 194
E 10 91 196
E 10 94 200
E 10 99 208
E 10 110 199
E 10 111 200
E 10 118 204
E 10 125 205
E 10 132 199
E 10 141 196
E 10 142 193
E 10 144 199
E 10 151 206
E 10 153 199
E 10 155 193
E 10 156 201
E 10 157 198
E 10 159 204
E 10 160 197
E 11 12 311
E 11 19 299
E 11 29 189
E 11 33 191
E 11 44 195
E 11 47 199
E 11 48 204
E 11 53 200
E 11 72 202
E 11 73 205
E 11 82 206
E 11 85 197
E 11 97 194
E 11 99 196
E 11 113 196
E 11 119 191
E 11 126 200
E 11 131 199
E 11 135 196
E 11 138 192
E 11 143 202
E 11 145 199
E 11 147 180
E 11 148 195
E 11 156 195
E 11 158 194
E 12 17 295
E 12 23 305
E 12 24 305
E 12 27 197
E 12 33 195
E 12 48 198
E 12 60 201
E 12 62 198
E 12 66 187
E 12 75 200
E 12 78 202
E 12 79 195
E 12 81 199
E 12 85 194
E 12 87 204
E 12 117 198
E 12 121 196
E 12 122 198
E 12 126 201
E 12 127 197
E 12 132 200
E 12 140 201
E 12 148 197
E 12 151 201
E 13 14 306
E 13 22 297
E 13 29 197
E 13 36 207
E 13 42 191
E 13 49 202
E 13 52 198
E 13 57 205
E 13 63 197
E 13 76 200
E 13 90 203
E 13 91 197
E 13 100 202
E 13 104 198
E 13 112 204
E 13 116 195
E 13 117 197
E 13 122 194
E 13 123 193
E 13 124 196
E 13 140 193
E 13 143 197
E 13 144 195
E 14 16 304
E 14 31 195
E 14 36 196
E 14 37 196
E 14 45 196
E 14 47 202
E 14 51 193
E 14 57 196
E 14 71 192
E 14 76 212
E 14 79 196
E 14 85 204
E 14 94 199
E 14 97 199
E 14 98 197
E 14 103 204
E 14 106 202
E 14 109 202
E 14 115 197
E 14 121 195
E 14 126 191
E 14 131 206
E 14 133 198
E 14 134 200
E 14 138 202
E 14 146 194
E 14 150 206
E 14 152 204
E 14 155 201
E 15 28 204
E 15 33 201
E 15 39 202
E 15 40 196
E 15 42 201
E 15 53 199
E 15 57 197
E 15 61 196
E 15 64 203
E 15 67 194
E 15 75 196
E 15 76 197
E 15 79 196
E 15 81 202
E 15 83 198
E 15 87 212
E 15 91 194
E 15 100 196
E 15 102 200
E 15 105 195
E 15 124 204
E 15 134 199
E 15 136 199
E 15 140 204
E 15 150 200
E 15 157 196
E 15 159 211
E 16 17 303
E 16 19 304
E 16 20 304
E 16 21 296
E 16 28 196
E 16 44 199
E 16 53 204
E 16 54 193
E 16 55 198
E 16 61 199
E 16 62 201
E 16 66 190
E 16 69 197
E 16 71 201
E 16 78 201
E 16 81 197
E 16 106 196
E 16 109 201
E 16 112 206
E 16 115 201
E 16 117 205
E 16 118 197
E 16 124 196
E 16 127 187
E 16 129 198
E 16 133 194
E 16 135 203
E 16 138 200
E 16 139 201
E 16 141 202
E 16 147 200
E 16 148 203
E 16 154 196
E 16 155 197
E 16 158 205
E 17 18 299
E 17 23 306
E 17 26 200
E 17 29 204
E 17 37 197
E 17 49 201
E 17 51 197
E 17 55 197
E 17 62 208
E 17 68 199
E 17 69 205
E 17 71 200
E 17 73 201
E 17 82 193
E 17 90 199
E 17 91 201
E 17 94 199
E 17 101 189
E 17 107 203
E 17 116 200
E 17 120 208
E 17 121 201
E 17 129 203
E 17 132 199
E 17 134 194
E 17 135 205
E 17 139 210
E 17 148 191
E 17 150 205
E 17 153 199
E 17 155 193
E 17 156 201
E 17 158 200
E 17 159 199
E 18 20 297
E 18 27 196
E 18 28 197
E 18 34 197
E 18 41 209
E 18 51 196
E 18 52 201
E 18 56 198
E 18 74 192
E 18 75 197
E 18 83 204
E 18 85 200
E 18 87 198
E 18 93 206
E 18 100 199
E 18 108 203
E 18 109 198
E 18 113 199
E 18 114 196
E 18 123 198
E 18 125 207
E 18 126 197
E 18 145 210
E 18 159 202
E 19 25 199
E 19 34 195
E 19 37 195
E 19 38 201
E 19 40 188
E 19 45 199
E 19 48 196
E 19 51 197
E 19 53 197
E 19 56 195
E 19 59 196
E 19 67 195
E 19 68 205
E 19 72 196
E 19 76 206
E 19 81 203
E 19 83 196
E 19 92 202
E 19 95 194
E 19 97 198
E 19 102 207
E 19 105 199
E 19 113 190
E 19 121 202
E 19 130 205
E 19 136 202
E 19 140 197
E 19 141 203
E 19 144 200
E 19 155 204
E 19 156 201
E 19 158 198
E 19 160 209
E 20 26 202
E 20 27 187
E 20 28 203
E 20 30 200
E 20 38 206
E 20 43 207
E 20 44 201
E 20 49 203
E 20 55 209
E 20 58 189
E 20 65 197
E 20 67 194
E 20 72 197
E 20 75 198
E 20 82 206
E 20 83 206
E 20 88 197
E 20 94 195
E 20 112 208
E 20 130 193
E 20 139 208
E 20 145 210
E 20 148 199
E 20 152 207
E 20 155 205
E 20 160 201
E 21 25 206
E 21 30 198
E 21 32 202
E 21 37 199
E 21 39 194
E 21 45 202
E 21 72 200
E 21 73 206
E 21 74 201
E 21 78 200
E 21 81 202
E 21 83 194
E 21 97 199
E 21 98 194
E 21 99 190
E 21 103 198
E 21 104 205
E 21 109 207
E 21 112 208
E 21 118 202
E 21 121 196
E 21 126 207
E 21 129 203
E 21 130 195
E 21 132 201
E 21 139 200
E 21 143 201
E 21 144 206
E 21 149 189
E 22 26 202
E 22 29 202
E 22 30 200
E 22 42 194
E 22 45 198
E 22 47 198
E 22 55 201
E 22 73 200
E 22 77 205
E 22 84 201
E 22 94 198
E 22 106 202
E 22 108 198
E 22 116 206
E 22 123 198
E 22 126 196
E 22 129 198
E 22 135 194
E 22 147 199
E 22 150 200
E 22 151 199
E 22 158 198
E 23 25 190
E 23 26 202
E 23 39 205
E 23 48 198
E 23 49 198
E 23 55 198
E 23 58 208
E 23 61 199
E 23 75 204
E 23 77 198
E 23 80 197
E 23 89 192
E 23 95 194
E 23 97 209
E 23 100 199
E 23 105 207
E 23 108 202
E 23 110 200
E 23 116 194
E 23 134 201
E 23 140 203
E 23 148 199
E 23 149 206
E 24 26 206
E 24 27 201
E 24 44 195
E 24 50 189
E 24 55 191
E 24 60 199
E 24 67 197
E 24 74 197
E 24 75 199
E 24 78 200
E 24 79 209
E 24 84 205
E 24 90 198
E 24 97 196
E 24 104 204
E 24 117 211
E 24 133 209
E 24 134 199
E 24 135 205
E 24 136 197
E 24 138 208
E 24 144 194
E 24 147 193
E 24 157 199
E 24 158 200
E 25 27 97
E 25 29 102
E 25 31 99
E 25 34 105
E 25 37 105
E 25 43 98
E 25 44 98
E 25 52 103
E 25 56 100
E 25 61 98
E 25 63 99
E 25 67 103
E 25 72 114
E 25 79 98
E 25 80 102
E 25 82 88
E 25 88 98
E 25 89 100
E 25 91 104
E 25 94 109
E 25 100 97
E 25 103 95
E 25 105 108
E 25 110 100
E 25 118 97
E 25 119 99
E 25 120 101
E 25 127 101
E 25 129 104
E 25 134 100
E 25 146 101
E 25 149 97
E 25 155 98
E 25 160 102
E 26 27 101
E 26 29 106
E 26 32 96
E 26 36 104
E 26 38 98
E 26 41 98
E 26 43 97
E 26 53 100
E 26 61 101
E 26 64 106
E 26 76 95
E 26 88 109
E 26 92 95
E 26 95 92
E 26 97 105
E 26 110 95
E 26 117 99
E 26 135 98
E 26 136 100
E 26 143 95
E 26 149 95
E 26 155 99
E 26 157 92
E 27 35 99
E 27 41 100
E 27 42 98
E 27 46 104
E 27 49 93
E 27 56 100
E 27 58 102
E 27 60 106
E 27 63 102
E 27 64 90
E 27 71 109
E 27 80 96
E 27 105 97
E 27 110 91
E 27 122 95
E 27 145 106
E 27 148 97
E 27 151 103
E 28 38 100
E 28 43 106
E 28 46 93
E 28 56 105
E 28 60 99
E 28 72 101
E 28 73 106
E 28 74 101
E 28 83 93
E 28 85 103
E 28 89 100
E 28 99 97
E 28 101 100
E 28 105 98
E 28 106 91
E 28 108 102
E 28 109 97
E 28 114 94
E 28 133 91
E 28 135 105
E 28 142 100
E 28 144 96
E 28 152 103
E 29 30 90
E 29 31 101
E 29 40 102
E 29 42 106
E 29 46 109
E 29 64 98
E 29 65 94
E 29 74 91
E 29 80 105
E 29 85 99
E 29 89 101
E 29 91 104
E 29 100 104
E 29 105 100
E 29 111 95
E 29 118 103
E 29 120 91
E 29 124 98
E 29 126 109
E 29 133 96
E 29 134 109
E 29 138 99
E 29 153 98
E 29 157 96
E 30 31 94
E 30 41 99
E 30 44 101
E 30 45 94
E 30 56 91
E 30 60 96
E 30 63 109
E 30 69 95
E 30 73 102
E 30 74 98
E 30 76 105
E 30 77 103
E 30 80 98
E 30 81 96
E 30 89 98
E 30 92 97
E 30 104 108
E 30 105 104
E 30 106 103
E 30 110 96
E 30 112 111
E 30 113 97
E 30 116 100
E 30 120 102
E 30 122 106
E 30 123 95
E 30 128 101
E 30 133 103
E 30 137 100
E 30 139 104
E 30 141 99
E 30 144 102
E 30 151 91
E 30 152 98
E 31 32 96
E 31 46 95
E 31 51 96
E 31 52 101
E 31 56 104
E 31 64 97
E 31 70 92
E 31 74 93
E 31 78 102
E 31 79 100
E 31 90 95
E 31 94 98
E 31 96 95
E 31 99 95
E 31 100 107
E 31 105 102
E 31 106 100
E 31 107 97
E 31 109 104
E 31 113 108
E 31 121 105
E 31 132 102
E 31 135 111
E 31 142 106
E 31 143 105
E 31 147 100
E 31 148 105
E 31 149 98
E 31 153 101
E 31 154 108
E 31 157 103
E 32 33 95
E 32 39 94
E 32 42 105
E 32 59 93
E 32 60 100
E 32 61 100
E 32 62 100
E 32 68 103
E 32 72 96
E 32 77 95
E 32 78 94
E 32 79 99
E 32 91 97
E 32 100 94
E 32 109 98
E 32 113 103
E 32 115 99
E 32 116 99
E 32 117 101
E 32 119 97
E 32 123 97
E 32 131 102
E 32 137 104
E 32 145 96
E 33 34 102
E 33 39 107
E 33 45 93
E 33 51 106
E 33 58 97
E 33 67 97
E 33 71 100
E 33 72 100
E 33 73 85
E 33 82 94
E 33 98 106
E 33 105 105
E 33 110 100
E 33 116 100
E 33 118 103
E 33 124 93
E 33 131 105
E 33 136 100
E 33 137 90
E 33 140 98
E 33 149 95
E 33 160 96
E 34 41 96
E 34 52 100
E 34 67 99
E 34 68 101
E 34 70 101
E 34 72 90
E 34 74 97
E 34 75 105
E 34 77 102
E 34 79 105
E 34 80 92
E 34 87 99
E 34 92 97
E 34 94 96
E 34 95 91
E 34 98 93
E 34 102 99
E 34 105 104
E 34 111 107
E 34 113 96
E 34 117 100
E 34 124 100
E 34 134 109
E 34 135 98
E 34 139 86
E 34 145 91
E 34 150 98
E 35 44 98
E 35 51 99
E 35 52 96
E 35 56 106
E 35 60 101
E 35 62 101
E 35 67 97
E 35 75 113
E 35 77 96
E 35 79 101
E 35 96 94
E 35 99 98
E 35 101 99
E 35 103 97
E 35 114 98
E 35 121 85
E 35 128 101
E 35 129 91
E 35 130 97
E 35 131 103
E 35 135 108
E 35 140 103
E 35 147 94
E 35 148 103
E 35 151 106
E 35 157 107
E 35 158 102
E 35 159 95
E 35 160 100
E 36 49 92
E 36 51 99
E 36 59 88
E 36 63 94
E 36 70 94
E 36 72 103
E 36 76 105
E 36 86 103
E 36 88 108
E 36 89 97
E 36 96 108
E 36 98 96
E 36 111 94
E 36 112 103
E 36 122 95
E 36 125 104
E 36 128 102
E 36 129 101
E 36 130 102
E 36 131 104
E 36 144 98
E 36 145 106
E 36 157 101
E 36 158 96
E 37 39 100
E 37 46 107
E 37 48 99
E 37 56 98
E 37 57 102
E 37 60 102
E 37 65 90
E 37 68 106
E 37 69 96
E 37 71 91
E 37 74 103
E 37 75 102
E 37 79 102
E 37 85 95
E 37 94 96
E 37 100 100
E 37 111 103
E 37 114 99
E 37 115 96
E 37 121 97
E 37 127 105
E 37 132 95
E 37 133 103
E 37 141 101
E 37 145 95
E 37 155 106
E 37 160 95
E 38 41 98
E 38 46 101
E 38 64 100
E 38 71 103
E 38 80 105
E 38 84 97
E 38 93 116
E 38 94 99
E 38 98 93
E 38 118 87
E 38 122 105
E 38 132 92
E 38 141 102
E 38 145 102
E 39 45 105
E 39 46 96
E 39 47 92
E 39 53 103
E 39 55 102
E 39 61 94
E 39 81 102
E 39 83 104
E 39 84 93
E 39 86 96
E 39 94 95
E 39 96 99
E 39 101 95
E 39 107 102
E 39 109 97
E 39 118 104
E 39 124 92
E 39 132 103
E 39 133 100
E 39 141 93
E 39 142 94
E 39 143 100
E 39 147 92
E 39 150 101
E 39 154 96
E 39 155 101
E 40 45 96
E 40 49 104
E 40 60 101
E 40 65 95
E 40 74 100
E 40 77 95
E 40 85 99
E 40 90 96
E 40 98 104
E 40 99 109
E 40 102 104
E 40 111 92
E 40 119 87
E 40 130 94
E 40 135 98
E 40 138 95
E 40 141 109
E 40 147 100
E 40 156 103
E 40 158 103
E 40 159 105
E 40 160 101
E 41 57 98
E 41 68 97
E 41 73 97
E 41 75 93
E 41 78 98
E 41 79 95
E 41 86 98
E 41 90 112
E 41 104 93
E 41 125 97
E 41 129 97
E 41 130 96
E 41 137 105
E 41 145 101
E 41 149 97
E 41 150 96
E 41 156 102
E 41 159 99
E 42 43 85
E 42 44 103
E 42 47 97
E 42 58 91
E 42 61 105
E 42 64 92
E 42 66 104
E 42 67 107
E 42 72 96
E 42 74 101
E 42 75 106
E 42 78 100
E 42 87 101
E 42 89 106
E 42 94 103
E 42 104 102
E 42 107 91
E 42 108 98
E 42 109 96
E 42 110 100
E 42 119 97
E 42 122 106
E 42 133 100
E 42 141 92
E 42 143 96
E 42 159 100
E 42 160 108
E 43 51 104
E 43 58 98
E 43 59 95
E 43 61 94
E 43 64 92
E 43 83 104
E 43 87 98
E 43 94 101
E 43 99 101
E 43 100 104
E 43 108 103
E 43 111 105
E 43 113 110
E 43 118 103
E 43 119 99
E 43 142 105
E 43 145 100
E 43 149 97
E 43 157 96
E 43 159 100
E 44 45 102
E 44 46 94
E 44 51 100
E 44 58 103
E 44 59 93
E 44 62 102
E 44 63 97
E 44 64 96
E 44 94 93
E 44 97 93
E 44 101 106
E 44 104 102
E 44 106 98
E 44 113 88
E 44 119 100
E 44 120 107
E 44 123 109
E 44 125 94
E 44 135 106
E 44 139 97
E 44 151 97
E 45 51 98
E 45 52 89
E 45 55 102
E 45 57 95
E 45 64 99
E 45 67 103
E 45 68 102
E 45 69 100
E 45 82 107
E 45 84 104
E 45 85 91
E 45 89 98
E 45 90 101
E 45 92 108
E 45 98 97
E 45 102 98
E 45 103 98
E 45 109 100
E 45 121 96
E 45 122 101
E 45 130 95
E 45 136 100
E 45 138 104
E 45 141 98
E 45 143 101
E 45 144 100
E 45 146 102
E 45 152 105
E 46 47 104
E 46 50 97
E 46 51 104
E 46 58 104
E 46 61 96
E 46 70 97
E 46 76 92
E 46 81 99
E 46 89 98
E 46 100 101
E 46 102 86
E 46 104 105
E 46 116 99
E 46 119 105
E 46 129 104
E 46 141 104
E 46 142 105
E 46 147 101
E 46 151 101
E 46 153 99
E 46 159 102
E 47 55 98
E 47 62 107
E 47 67 104
E 47 73 99
E 47 94 105
E 47 95 93
E 47 103 106
E 47 112 107
E 47 114 100
E 47 119 102
E 47 120 98
E 47 123 94
E 47 126 94
E 47 128 96
E 47 132 110
E 47 133 99
E 47 135 96
E 47 138 99
E 47 146 101
E 47 148 102
E 47 151 104
E 47 152 94
E 47 160 99
E 48 56 98
E 48 57 101
E 48 60 108
E 48 67 95
E 48 69 98
E 48 70 102
E 48 74 101
E 48 77 95
E 48 81 93
E 48 82 89
E 48 86 95
E 48 87 98
E 48 94 98
E 48 95 104
E 48 97 94
E 48 99 91
E 48 103 100
E 48 104 101
E 48 108 103
E 48 114 94
E 48 115 96
E 48 116 99
E 48 117 94
E 48 136 97
E 48 144 92
E 48 148 102
E 48 153 105
E 48 155 94
E 49 51 98
E 49 66 89
E 49 68 101
E 49 81 105
E 49 87 98
E 49 88 97
E 49 90 93
E 49 91 91
E 49 96 102
E 49 100 97
E 49 103 101
E 49 104 101
E 49 105 93
E 49 107 98
E 49 114 96
E 49 122 99
E 49 126 104
E 49 130 96
E 49 134 92
E 49 138 99
E 49 147 96
E 49 149 107
E 49 150 93
E 49 153 98
E 49 154 96
E 49 160 92
E 50 54 97
E 50 56 92
E 50 59 104
E 50 64 104
E 50 69 99
E 50 71 109
E 50 74 104
E 50 81 95
E 50 89 101
E 50 92 101
E 50 93 99
E 50 100 103
E 50 108 91
E 50 110 96
E 50 117 100
E 50 120 101
E 50 124 98
E 50 130 99
E 50 131 99
E 50 139 98
E 50 141 97
E 50 150 100
E 50 153 98
E 51 56 106
E 51 57 105
E 51 58 103
E 51 62 103
E 51 72 106
E 51 76 94
E 51 77 103
E 51 78 103
E 51 79 97
E 51 81 106
E 51 82 102
E 51 90 102
E 51 91 95
E 51 101 90
E 51 113 97
E 51 118 102
E 51 123 109
E 51 126 91
E 51 132 110
E 51 133 100
E 51 140 100
E 51 143 103
E 51 144 105
E 51 150 98
E 51 151 104
E 51 152 104
E 51 156 89
E 51 157 91
E 52 53 98
E 52 55 95
E 52 59 100
E 52 60 97
E 52 62 103
E 52 77 98
E 52 80 94
E 52 82 92
E 52 105 94
E 52 106 89
E 52 110 98
E 52 112 105
E 52 120 99
E 52 121 98
E 52 132 93
E 52 133 104
E 52 135 94
E 52 136 96
E 52 152 96
E 52 153 103
E 52 158 102
E 53 55 93
E 53 60 94
E 53 62 107
E 53 63 104
E 53 71 112
E 53 72 95
E 53 73 107
E 53 78 108
E 53 79 95
E 53 82 95
E 53 93 92
E 53 115 96
E 53 130 95
E 53 139 97
E 53 142 100
E 53 146 107
E 53 153 110
E 54 61 97
E 54 67 107
E 54 70 97
E 54 77 95
E 54 79 105
E 54 84 107
E 54 89 99
E 54 90 99
E 54 92 95
E 54 94 99
E 54 102 99
E 54 111 105
E 54 116 100
E 54 119 98
E 54 123 94
E 54 132 99
E 54 133 109
E 54 137 97
E 54 142 99
E 54 147 97
E 54 149 104
E 54 150 93
E 54 156 96
E 54 158 100
E 54 159 102
E 55 56 106
E 55 62 99
E 55 73 103
E 55 77 96
E 55 78 104
E 55 84 99
E 55 96 100
E 55 97 105
E 55 101 100
E 55 102 101
E 55 116 102
E 55 124 102
E 55 131 99
E 55 132 99
E 55 137 92
E 55 156 98
E 55 160 107
E 56 63 94
E 56 70 97
E 56 78 100
E 56 86 93
E 56 92 103
E 56 98 97
E 56 99 101
E 56 100 97
E 56 103 102
E 56 108 95
E 56 120 98
E 56 125 103
E 56 127 107
E 56 136 100
E 56 137 101
E 56 139 101
E 56 149 114
E 56 150 97
E 56 153 97
E 56 157 98
E 57 58 93
E 57 60 96
E 57 64 90
E 57 69 103
E 57 73 94
E 57 79 95
E 57 88 99
E 57 92 102
E 57 93 93
E 57 100 105
E 57 112 104
E 57 115 99
E 57 116 102
E 57 120 100
E 57 125 102
E 57 129 93
E 57 130 101
E 57 131 94
E 57 138 94
E 57 142 102
E 57 152 102
E 57 153 93
E 57 154 100
E 58 62 94
E 58 67 99
E 58 71 94
E 58 77 102
E 58 86 96
E 58 87 101
E 58 92 92
E 58 95 109
E 58 111 95
E 58 115 99
E 58 131 99
E 58 134 88
E 58 136 95
E 58 137 92
E 58 141 98
E 58 150 109
E 58 159 103
E 59 60 101
E 59 68 95
E 59 71 95
E 59 73 106
E 59 75 87
E 59 77 93
E 59 83 96
E 59 86 103
E 59 87 97
E 59 89 99
E 59 94 102
E 59 108 100
E 59 109 101
E 59 110 100
E 59 113 106
E 59 116 94
E 59 121 105
E 59 122 94
E 59 123 96
E 59 124 98
E 59 132 107
E 59 133 104
E 59 137 101
E 59 144 107
E 59 151 91
E 59 152 107
E 59 153 99
E 59 154 99
E 59 155 94
E 59 159 100
E 60 63 94
E 60 68 97
E 60 71 98
E 60 81 96
E 60 85 102
E 60 87 105
E 60 89 108
E 60 93 106
E 60 94 103
E 60 95 105
E 60 102 97
E 60 111 99
E 60 113 96
E 60 118 99
E 60 120 100
E 60 122 101
E 60 128 99
E 60 129 97
E 60 136 100
E 60 138 110
E 60 143 105
E 60 144 94
E 60 146 104
E 60 148 92
E 60 154 89
E 60 155 101
E 60 157 100
E 60 159 100
E 61 63 95
E 61 83 90
E 61 93 99
E 61 94 96
E 61 95 92
E 61 101 91
E 61 102 106
E 61 105 102
E 61 122 93
E 61 137 96
E 61 142 100
E 61 143 102
E 62 64 95
E 62 66 94
E 62 67 101
E 62 69 103
E 62 72 99
E 62 73 105
E 62 77 105
E 62 89 101
E 62 92 98
E 62 93 104
E 62 95 96
E 62 97 98
E 62 113 92
E 62 115 109
E 62 120 107
E 62 121 106
E 62 130 101
E 62 139 91
E 62 140 97
E 62 146 100
E 62 149 102
E 62 155 90
E 62 156 108
E 63 64 95
E 63 68 102
E 63 79 105
E 63 84 95
E 63 85 94
E 63 90 91
E 63 98 104
E 63 100 103
E 63 101 98
E 63 104 100
E 63 108 94
E 63 109 96
E 63 114 103
E 63 136 97
E 63 140 107
E 63 142 105
E 63 145 107
E 63 150 98
E 63 151 110
E 63 154 97
E 64 69 101
E 64 73 99
E 64 87 104
E 64 101 99
E 64 102 98
E 64 105 102
E 64 114 103
E 64 126 98
E 64 128 99
E 64 130 98
E 64 133 102
E 64 136 101
E 64 137 98
E 64 139 102
E 64 144 104
E 64 145 91
E 64 153 99
E 64 160 100
E 65 69 106
E 65 70 108
E 65 82 93
E 65 86 93
E 65 93 101
E 65 97 105
E 65 108 114
E 65 109 97
E 65 111 98
E 65 120 94
E 65 131 101
E 65 132 104
E 65 134 98
E 65 147 95
E 65 149 101
E 65 151 99
E 65 153 95
E 65 154 99
E 65 157 101
E 66 69 107
E 66 73 96
E 66 74 99
E 66 79 100
E 66 81 109
E 66 85 103
E 66 90 95
E 66 96 101
E 66 98 113
E 66 103 94
E 66 113 105
E 66 119 94
E 66 120 99
E 66 125 93
E 66 131 111
E 66 139 99
E 66 141 105
E 67 71 96
E 67 73 92
E 67 78 101
E 67 79 101
E 67 87 95
E 67 93 101
E 67 99 96
E 67 101 99
E 67 109 101
E 67 111 98
E 67 113 105
E 67 115 98
E 67 119 102
E 67 124 101
E 67 126 112
E 67 129 97
E 67 130 96
E 67 135 99
E 67 138 99
E 67 140 112
E 67 142 96
E 67 144 103
E 67 150 101
E 67 151 91
E 67 153 99
E 67 159 105
E 68 72 103
E 68 83 96
E 68 89 94
E 68 93 89
E 68 96 104
E 68 98 113
E 68 99 99
E 68 103 101
E 68 104 93
E 68 115 103
E 68 117 107
E 68 122 101
E 68 129 102
E 68 136 98
E 68 150 90
E 68 152 103
E 68 153 95
E 68 157 100
E 69 85 97
E 69 88 95
E 69 89 105
E 69 91 94
E 69 95 108
E 69 96 103
E 69 102 95
E 69 111 100
E 69 113 93
E 69 119 93
E 69 120 105
E 69 132 102
E 69 134 101
E 69 135 108
E 69 143 101
E 69 148 105
E 69 149 96
E 69 151 102
E 69 156 110
E 69 157 99
E 69 158 100
E 70 71 103
E 70 86 109
E 70 95 97
E 70 100 103
E 70 106 98
E 70 107 107
E 70 110 97
E 70 113 101
E 70 119 93
E 70 130 98
E 70 131 107
E 70 136 96
E 70 137 100
E 70 138 99
E 70 141 94
E 71 74 103
E 71 84 97
E 71 94 96
E 71 99 98
E 71 103 102
E 71 117 86
E 71 124 94
E 71 131 96
E 71 134 95
E 71 140 102
E 71 144 100
E 71 145 93
E 72 74 101
E 72 88 96
E 72 91 102
E 72 94 96
E 72 97 103
E 72 99 104
E 72 103 96
E 72 105 100
E 72 113 112
E 72 119 98
E 72 122 101
E 72 132 102
E 72 137 104
E 72 148 93
E 72 150 87
E 72 159 106
E 72 160 102
E 73 78 97
E 73 91 92
E 73 99 101
E 73 110 100
E 73 113 102
E 73 116 109
E 73 117 98
E 73 121 92
E 73 123 97
E 73 129 100
E 73 132 98
E 73 140 92
E 73 143 97
E 73 149 102
E 73 153 101
E 73 154 107
E 73 155 100
E 74 78 95
E 74 79 101
E 74 87 105
E 74 88 102
E 74 105 100
E 74 109 99
E 74 117 109
E 74 119 102
E 74 124 99
E 74 129 92
E 74 136 100
E 74 137 112
E 74 140 93
E 74 142 99
E 74 147 102
E 74 153 94
E 74 156 103
E 74 158 105
E 74 160 99
E 75 80 87
E 75 86 104
E 75 92 109
E 75 93 90
E 75 94 102
E 75 98 103
E 75 99 107
E 75 100 99
E 75 104 95
E 75 107 113
E 75 118 91
E 75 124 101
E 75 126 96
E 75 127 101
E 75 140 104
E 75 141 93
E 75 143 97
E 75 149 106
E 75 155 103
E 75 157 95
E 76 77 99
E 76 79 102
E 76 81 96
E 76 86 94
E 76 89 99
E 76 92 93
E 76 109 96
E 76 114 107
E 76 118 111
E 76 119 104
E 76 128 97
E 76 144 106
E 76 148 99
E 76 157 107
E 77 82 90
E 77 95 96
E 77 100 107
E 77 107 101
E 77 112 100
E 77 119 98
E 77 125 97
E 77 129 104
E 77 142 104
E 77 143 105
E 77 144 96
E 77 146 100
E 78 99 101
E 78 110 102
E 78 115 101
E 78 116 100
E 78 121 96
E 78 125 100
E 78 129 106
E 78 130 100
E 78 133 100
E 78 140 96
E 78 159 108
E 79 84 104
E 79 95 102
E 79 105 102
E 79 107 101
E 79 111 100
E 79 121 104
E 79 122 99
E 79 124 98
E 79 126 98
E 79 127 100
E 79 130 97
E 79 134 100
E 79 135 96
E 79 138 91
E 79 139 97
E 79 144 106
E 79 147 95
E 79 152 101
E 80 85 100
E 80 88 112
E 80 90 96
E 80 91 103
E 80 97 97
E 80 101 104
E 80 113 105
E 80 114 105
E 80 115 102
E 80 121 98
E 80 122 93
E 80 123 106
E 80 131 103
E 80 132 98
E 80 151 92
E 80 152 100
E 80 155 96
E 80 156 102
E 81 82 96
E 81 83 108
E 81 89 105
E 81 93 98
E 81 94 93
E 81 98 97
E 81 99 95
E 81 100 96
E 81 108 99
E 81 115 88
E 81 119 98
E 81 122 106
E 81 125 101
E 81 129 112
E 81 139 103
E 81 149 100
E 81 155 106
E 81 157 102
E 82 84 103
E 82 87 93
E 82 95 94
E 82 96 100
E 82 98 98
E 82 100 98
E 82 105 110
E 82 106 102
E 82 109 99
E 82 111 110
E 82 112 104
E 82 128 96
E 82 133 99
E 82 137 98
E 82 149 100
E 82 157 97
E 83 84 95
E 83 90 91
E 83 94 102
E 83 98 101
E 83 108 99
E 83 118 96
E 83 119 95
E 83 122 99
E 83 123 95
E 83 125 99
E 83 132 95
E 83 135 100
E 83 141 96
E 83 147 92
E 83 150 90
E 83 151 103
E 83 153 89
E 83 156 97
E 83 157 92
E 83 158 99
E 83 159 96
E 84 90 94
E 84 104 100
E 84 105 95
E 84 111 99
E 84 116 94
E 84 119 108
E 84 127 98
E 84 131 102
E 84 143 105
E 84 149 102
E 84 156 104
E 85 86 95
E 85 91 95
E 85 99 89
E 85 102 105
E 85 105 103
E 85 107 95
E 85 112 104
E 85 113 100
E 85 118 96
E 85 119 97
E 85 122 92
E 85 123 103
E 85 127 104
E 85 128 101
E 85 131 86
E 85 136 97
E 85 140 98
E 85 142 100
E 85 154 104
E 85 157 113
E 85 159 98
E 86 92 90
E 86 95 106
E 86 103 93
E 86 104 103
E 86 108 98
E 86 109 103
E 86 122 106
E 86 123 87
E 86 124 98
E 86 125 92
E 86 131 95
E 86 132 103
E 86 134 89
E 86 140 103
E 86 142 91
E 86 146 96
E 86 158 97
E 87 91 100
E 87 93 104
E 87 98 105
E 87 102 95
E 87 104 102
E 87 105 101
E 87 113 103
E 87 114 98
E 87 117 95
E 87 122 104
E 87 126 96
E 87 128 100
E 87 145 97
E 87 156 100
E 88 89 100
E 88 92 83
E 88 100 104
E 88 122 96
E 88 125 103
E 88 129 99
E 88 130 102
E 88 132 100
E 88 142 105
E 88 143 97
E 88 145 102
E 88 154 109
E 88 156 98
E 88 158 107
E 88 159 103
E 89 101 100
E 89 102 100
E 89 103 103
E 89 105 96
E 89 114 100
E 89 115 95
E 89 116 98
E 89 122 103
E 89 124 98
E 89 129 103
E 89 130 105
E 89 133 109
E 89 143 101
E 89 144 102
E 89 147 109
E 89 150 98
E 89 154 98
E 89 157 101
E 89 159 103
E 90 101 98
E 90 111 98
E 90 114 91
E 90 115 93
E 90 119 103
E 90 122 99
E 90 124 98
E 90 126 97
E 90 131 97
E 90 139 99
E 91 93 108
E 91 95 106
E 91 98 95
E 91 104 105
E 91 108 92
E 91 111 95
E 91 114 98
E 91 117 99
E 91 126 96
E 91 129 104
E 91 138 103
E 91 143 107
E 91 146 93
E 91 159 106
E 92 94 104
E 92 98 96
E 92 107 95
E 92 109 104
E 92 119 102
E 92 130 102
E 92 133 96
E 92 139 94
E 92 150 104
E 93 97 95
E 93 98 90
E 93 100 105
E 93 101 98
E 93 102 98
E 93 122 99
E 93 123 94
E 93 125 102
E 93 131 105
E 93 132 104
E 93 135 100
E 93 136 104
E 93 140 96
E 93 149 95
E 93 154 101
E 94 95 99
E 94 96 101
E 94 100 99
E 94 107 91
E 94 108 92
E 94 110 96
E 94 114 92
E 94 120 100
E 94 123 91
E 94 124 105
E 94 125 98
E 94 128 105
E 94 129 99
E 94 131 101
E 94 134 102
E 94 140 101
E 94 144 104
E 94 159 97
E 94 160 94
E 95 109 100
E 95 115 95
E 95 116 95
E 95 117 99
E 95 120 99
E 95 126 94
E 95 127 100
E 95 135 99
E 95 142 95
E 95 145 99
E 95 147 92
E 95 150 99
E 95 155 98
E 95 158 103
E 96 105 105
E 96 108 107
E 96 112 103
E 96 113 104
E 96 114 99
E 96 118 100
E 96 119 106
E 96 125 101
E 96 126 99
E 96 134 93
E 96 138 96
E 96 140 95
E 96 146 104
E 96 152 108
E 96 154 107
E 96 157 90
E 97 99 101
E 97 115 112
E 97 116 106
E 97 117 102
E 97 119 96
E 97 121 98
E 97 131 108
E 97 137 97
E 97 150 107
E 98 116 96
E 98 117 96
E 98 124 95
E 98 126 99
E 98 134 100
E 98 142 99
E 98 152 107
E 98 153 103
E 98 154 99
E 98 155 99
E 98 157 102
E 98 159 105
E 99 104 108
E 99 105 104
E 99 106 105
E 99 108 113
E 99 109 102
E 99 122 90
E 99 124 95
E 99 128 97
E 99 131 94
E 99 136 100
E 99 143 102
E 99 146 103
E 99 152 102
E 99 157 102
E 100 104 99
E 100 123 101
E 100 126 103
E 100 128 102
E 100 129 98
E 100 134 102
E 100 143 98
E 100 144 97
E 100 146 101
E 100 151 93
E 100 157 102
E 101 103 104
E 101 104 106
E 101 108 101
E 101 110 91
E 101 111 102
E 101 114 101
E 101 117 102
E 101 123 95
E 101 128 99
E 101 140 111
E 101 144 102
E 101 149 106
E 101 150 103
E 101 152 99
E 101 156 98
E 101 160 109
E 102 103 93
E 102 113 103
E 102 118 96
E 102 126 99
E 102 127 102
E 102 128 105
E 102 129 100
E 102 130 96
E 102 139 92
E 102 140 101
E 102 143 91
E 102 145 99
E 102 151 100
E 102 153 94
E 102 157 110
E 102 160 104
E 103 109 109
E 103 119 96
E 103 120 98
E 103 123 98
E 103 124 94
E 103 127 100
E 103 139 91
E 103 144 98
E 103 150 96
E 103 151 97
E 103 154 107
E 104 108 101
E 104 118 97
E 104 120 97
E 104 135 100
E 104 139 110
E 104 140 96
E 104 142 109
E 104 143 98
E 104 144 103
E 104 147 102
E 104 151 98
E 104 155 111
E 105 107 102
E 105 112 98
E 105 114 100
E 105 116 99
E 105 118 101
E 105 119 102
E 105 135 111
E 105 140 107
E 105 144 103
E 105 147 88
E 105 149 96
E 105 156 102
E 105 159 105
E 106 116 100
E 106 120 95
E 106 127 108
E 106 139 98
E 106 140 105
E 106 142 97
E 106 143 101
E 106 145 98
E 106 150 98
E 106 155 103
E 106 158 91
E 107 120 95
E 107 130 99
E 107 155 94
E 107 156 104
E 107 158 96
E 108 115 98
E 108 121 98
E 108 130 101
E 108 139 99
E 108 152 100
E 108 158 94
E 109 129 93
E 109 130 95
E 109 132 102
E 109 135 103
E 109 136 91
E 109 139 100
E 109 144 99
E 109 149 101
E 109 157 96
E 109 159 95
E 110 118 94
E 110 126 103
E 110 140 104
E 110 144 98
E 110 148 102
E 110 158 105
E 111 114 98
E 111 116 103
E 111 120 97
E 111 122 97
E 111 123 102
E 111 126 93
E 111 127 100
E 111 132 105
E 111 138 88
E 111 143 104
E 111 148 104
E 111 153 99
E 111 156 99
E 111 160 103
E 112 118 96
E 112 122 101
E 112 125 98
E 112 126 108
E 112 128 104
E 112 143 105
E 112 153 95
E 112 155 100
E 113 115 94
E 113 119 79
E 113 122 101
E 113 128 97
E 113 131 103
E 113 135 95
E 113 141 98
E 113 152 99
E 113 160 99
E 114 116 101
E 114 117 94
E 114 119 101
E 114 121 94
E 114 123 94
E 114 124 89
E 114 126 97
E 114 131 103
E 114 135 93
E 114 136 99
E 114 137 108
E 114 145 101
E 114 150 90
E 114 160 101
E 115 119 98
E 115 124 103
E 115 133 98
E 115 143 103
E 115 144 101
E 115 155 85
E 115 157 103
E 116 121 102
E 116 123 108
E 116 125 94
E 116 131 97
E 116 149 98
E 116 153 93
E 117 119 91
E 117 120 101
E 117 121 99
E 117 122 104
E 117 123 95
E 117 126 117
E 117 129 101
E 117 134 94
E 117 135 96
E 117 136 110
E 117 137 101
E 117 139 99
E 117 140 97
E 117 145 100
E 117 158 100
E 118 133 102
E 118 150 93
E 118 151 99
E 118 159 98
E 119 123 99
E 119 130 97
E 119 132 108
E 119 133 99
E 119 135 99
E 119 160 96
E 120 121 99
E 120 122 100
E 120 125 93
E 120 127 94
E 120 149 98
E 120 150 104
E 120 152 92
E 120 155 96
E 120 157 95
E 121 127 93
E 121 130 100
E 121 133 96
E 121 135 102
E 121 138 102
E 121 141 104
E 121 156 100
E 121 157 107
E 121 159 103
E 122 128 101
E 122 137 97
E 122 138 101
E 122 153 111
E 122 156 101
E 123 126 107
E 123 132 102
E 123 149 104
E 123 153 99
E 123 154 96
E 123 159 96
E 124 125 107
E 124 129 100
E 124 132 106
E 124 137 107
E 124 140 104
E 124 148 105
E 124 151 101
E 124 158 97
E 125 140 100
E 125 141 90
E 125 142 97
E 125 146 100
E 125 147 95
E 125 151 98
E 125 153 88
E 126 129 101
E 126 142 89
E 126 144 97
E 126 146 92
E 126 150 100
E 126 151 102
E 126 152 89
E 127 128 101
E 127 131 92
E 127 135 104
E 127 139 95
E 127 140 104
E 127 150 91
E 127 152 101
E 128 130 105
E 128 141 99
E 128 148 97
E 129 135 103
E 129 136 100
E 129 137 94
E 129 139 96
E 129 145 102
E 129 146 95
E 129 156 102
E 130 131 100
E 130 132 100
E 130 136 94
E 130 142 94
E 130 152 94
E 131 136 97
E 131 137 104
E 131 144 98
E 131 145 108
E 131 146 102
E 131 148 105
E 131 152 97
E 131 155 110
E 132 138 100
E 132 139 102
E 132 145 97
E 132 148 101
E 132 149 98
E 132 154 105
E 132 155 95
E 132 159 99
E 133 149 109
E 133 150 98
E 133 152 92
E 134 135 109
E 134 139 99
E 134 141 101
E 134 142 106
E 134 155 98
E 134 159 95
E 135 141 96
E 135 145 102
E 135 147 106
E 135 148 100
E 135 149 100
E 135 153 98
E 136 138 101
E 136 142 95
E 136 147 99
E 137 147 107
E 137 151 102
E 137 152 106
E 137 156 105
E 137 157 90
E 137 160 95
E 138 145 94
E 138 147 102
E 138 152 91
E 138 156 104
E 138 157 95
E 138 160 92
E 139 146 99
E 139 150 101
E 139 152 107
E 140 143 101
E 140 147 108
E 140 150 106
E 140 151 95
E 140 153 92
E 140 160 104
E 141 148 97
E 141 152 95
E 142 155 103
E 143 145 103
E 143 149 103
E 143 152 100
E 143 154 102
E 143 155 102
E 143 158 95
E 144 145 89
E 144 147 94
E 144 149 95
E 144 150 100
E 144 155 100
E 145 146 102
E 145 148 99
E 145 151 101
E 145 157 96
E 146 147 95
E 147 154 116
E 147 155 102
E 148 155 98
E 149 156 97
E 149 159 100
E 151 152 103
E 151 153 98
E 151 159 101
E 152 155 98
E 152 157 94
E 152 160 95
E 154 158 99
E 154 160 102
E 155 157 103
E 156 160 98
E 157 160 92
E 158 159 98
END

SECTION Terminals
Terminals 24
T 1
T 2
T 3
T 4
T 5
T 6
T 7
T 8
T 9
T 10
T 11
T 12
T 13
T 14
T 15
T 16
T 17
T 18
T 19
T 20
T 21
T 22
T 23
T 24
END

EOF
